\* metodo1 *\
Maximize
Total_de_calorias: 469.1862 Alim_Leche_descremada
Subject To
Limite_inferior_de_carbos: 50.1372 Alim_Leche_descremada >= 27.4245283019
Limite_inferior_de_grasas: 22.3958 Alim_Leche_descremada >= 17.0347893916
Limite_inferior_de_proteinas: 16.7688 Alim_Leche_descremada >= 31.0612745098
Limite_superior_de_carbos: 50.1372 Alim_Leche_descremada <= 30.3113207547
Limite_superior_de_grasas: 22.3958 Alim_Leche_descremada <= 18.827925117
Limite_superior_de_proteinas: 16.7688 Alim_Leche_descremada <= 34.3308823529
_C1: 469.1862 Alim_Leche_descremada <= 407.638227127
End
